Translating instance to solver...

Set parameter TimeLimit to value 28800
Gurobi Optimizer version 11.0.2 build v11.0.2rc0 (linux64 - "Ubuntu 22.04.4 LTS")

CPU model: Intel(R) Xeon(R) Gold 5120 CPU @ 2.20GHz, instruction set [SSE2|AVX|AVX2|AVX512]
Thread count: 28 physical cores, 56 logical processors, using up to 28 threads

Academic license 2463511 - for non-commercial use only - registered to lu___@cefet-rj.br
Optimize a model with 40945 rows, 21383 columns and 96975 nonzeros
Model fingerprint: 0x563d25ac
Variable types: 1 continuous, 21382 integer (21340 binary)
Coefficient statistics:
  Matrix range     [1e+00, 1e+05]
  Objective range  [3e-01, 8e-01]
  Bounds range     [1e+00, 4e+01]
  RHS range        [1e+00, 7e+01]
Presolve removed 32334 rows and 17818 columns
Presolve time: 0.58s
Presolved: 8611 rows, 3565 columns, 25866 nonzeros
Variable types: 0 continuous, 3565 integer (3524 binary)

Root relaxation: objective 1.414485e+00, 1377 iterations, 0.06 seconds (0.08 work units)

    Nodes    |    Current Node    |     Objective Bounds      |     Work
 Expl Unexpl |  Obj  Depth IntInf | Incumbent    BestBd   Gap | It/Node Time

     0     0    1.41448    0   75          -    1.41448      -     -    0s
H    0     0                       4.8412370    1.41448  70.8%     -    1s
     0     0    1.51178    0   48    4.84124    1.51178  68.8%     -    1s
H    0     0                       2.2676730    1.51178  33.3%     -    1s
H    0     0                       1.8176730    1.51178  16.8%     -    1s
     0     0    1.51178    0  100    1.81767    1.51178  16.8%     -    1s
     0     0    1.51178    0   98    1.81767    1.51178  16.8%     -    1s
H    0     0                       1.5117820    1.51178  0.00%     -    1s
     0     0    1.51178    0   15    1.51178    1.51178  0.00%     -    1s

Cutting planes:
  Gomory: 1
  Implied bound: 22
  Clique: 23
  MIR: 23
  Zero half: 3
  RLT: 21
  Relax-and-lift: 72
  BQP: 4

Explored 1 nodes (5423 simplex iterations) in 1.87 seconds (1.47 work units)
Thread count was 28 (of 56 available processors)

Solution count 4: 1.51178 1.81767 2.26767 4.84124 

Optimal solution found (tolerance 1.00e-04)
Best objective 1.511782000000e+00, best bound 1.511781902703e+00, gap 0.0000%

Solver Wallclock Time (for this epsilon): 1.8691940307617188 s
Python wallclock Time (for this epsilon): 4.868061065673828 s


Total Elapsed Time (since program call): 132.10074877738953 s

Results:

I = 1.511782 mA
C = 73.0 points
C ~= 29.200000000000003 km^2

Minimum Epsilon for this instance = 9
Maximum Epsilon for this instance = 98

Current Epsilon = 72


Preprocessing Time (for this epsilon): 0.0067865848541259766 s


Updated solution vectors:
sol_I = [-0.611782,-0.9176730000000001,-1.061782,-1.061782,-1.0617818536323502,-1.061782,-1.511782,-1.511782]
sol_C = [11.0,19.0,51.0,51.0,48.99999437626569,54.0,68.0,73.0]
sol_eps = [9,18,27,36,45,54,63,72]
sol_gap = [0.0,0.0,0.0,0.0,0.0,0.0,0.0,9.729729577578894e-08]
